/*
DATA SET 4: 
3 esami, 1000 studenti, 1 aula, 10 giorni. 
*/
ESAMI = {AI,IC,CN};
S = 1000;
A = 1;
G = 10;

durata = [4,3,1];
capienza = [1000];

prenotazioni = [|1,0,0
                |1,1,1
                |1,0,1
                |1,0,1
                |1,0,1
                |1,1,1
                |1,0,1
                |1,1,1
                |1,1,1
                |1,1,1
                |1,1,1
                |1,0,1
                |1,0,1
                |1,0,1
                |1,1,1
                |1,0,1
                |1,1,1
                |1,1,1
                |1,1,1
                |1,0,1
                |1,0,1
                |1,0,1
                |1,1,1
                |1,0,1
                |1,1,1
                |1,1,1
                |1,1,1
                |1,0,1
                |1,0,1
                |1,0,1
                |1,1,1
                |1,0,1
                |1,1,1
                |1,1,1
                |1,0,1
                |1,0,1
                |1,0,1
                |1,1,1
                |1,0,1
                |1,1,1
                |1,1,1
                |1,1,1
                |1,0,1
                |1,0,1
                |1,0,1
                |1,1,1
                |1,0,1
                |1,1,1
                |1,1,1
                |1,1,1
                |1,0,1
                |1,0,1
                |1,0,1
                |1,1,1
                |1,0,1
                |1,0,1
                |1,0,1
                |1,1,1
                |1,0,1
                |1,1,1
                |1,1,1
                |1,1,1
                |1,0,1
                |1,0,1
                |1,0,1
                |1,1,1
                |1,0,1
                |1,1,1
                |1,1,1
                |1,1,1
                |1,0,1
                |1,0,1
                |1,1,1
                |1,0,1
                |1,1,1
                |1,1,1
                |1,1,1
                |1,0,1
                |1,0,1
                |1,0,1
                |1,1,1
                |1,0,1
                |1,1,1
                |1,1,1
                |1,1,1
                |1,1,1
                |1,0,1
                |1,1,1
                |1,1,1
                |1,1,1
                |1,1,1
                |1,0,1
                |1,1,1
                |1,1,1
                |1,1,1
                |1,0,1
                |1,0,1
                |1,0,1
                |1,0,1
                |1,0,1
                |1,0,0
                |1,1,1
                |1,0,1
                |1,0,1
                |1,0,1
                |1,1,1
                |1,0,1
                |1,1,1
                |1,1,1
                |1,1,1
                |1,1,1
                |1,0,1
                |1,0,1
                |1,0,1
                |1,1,1
                |1,0,1
                |1,1,1
                |1,1,1
                |1,1,1
                |1,0,1
                |1,0,1
                |1,0,1
                |1,1,1
                |1,0,1
                |1,1,1
                |1,1,1
                |1,1,1
                |1,0,1
                |1,0,1
                |1,0,1
                |1,1,1
                |1,0,1
                |1,1,1
                |1,1,1
                |1,0,1
                |1,0,1
                |1,0,1
                |1,1,1
                |1,0,1
                |1,1,1
                |1,1,1
                |1,1,1
                |1,0,1
                |1,0,1
                |1,0,1
                |1,1,1
                |1,0,1
                |1,1,1
                |1,1,1
                |1,1,1
                |1,0,1
                |1,0,1
                |1,0,1
                |1,1,1
                |1,0,1
                |1,0,1
                |1,0,1
                |1,1,1
                |1,0,1
                |1,1,1
                |1,1,1
                |1,1,1
                |1,0,1
                |1,0,1
                |1,0,1
                |1,1,1
                |1,0,1
                |1,1,1
                |1,1,1
                |1,1,1
                |1,0,1
                |1,0,1
                |1,1,1
                |1,0,1
                |1,1,1
                |1,1,1
                |1,1,1
                |1,0,1
                |1,0,1
                |1,0,1
                |1,1,1
                |1,0,1
                |1,1,1
                |1,1,1
                |1,1,1
                |1,1,1
                |1,0,1
                |1,1,1
                |1,1,1
                |1,1,1
                |1,1,1
                |1,0,1
                |1,1,1
                |1,1,1
                |1,1,1
                |1,0,1
                |1,0,1
                |1,0,1
                |1,0,1
                |1,0,1
                |1,0,0
                |1,1,1
                |1,0,1
                |1,0,1
                |1,0,1
                |1,1,1
                |1,0,1
                |1,1,1
                |1,1,1
                |1,1,1
                |1,1,1
                |1,0,1
                |1,0,1
                |1,0,1
                |1,1,1
                |1,0,1
                |1,1,1
                |1,1,1
                |1,1,1
                |1,0,1
                |1,0,1
                |1,0,1
                |1,1,1
                |1,0,1
                |1,1,1
                |1,1,1
                |1,1,1
                |1,0,1
                |1,0,1
                |1,0,1
                |1,1,1
                |1,0,1
                |1,1,1
                |1,1,1
                |1,0,1
                |1,0,1
                |1,0,1
                |1,1,1
                |1,0,1
                |1,1,1
                |1,1,1
                |1,1,1
                |1,0,1
                |1,0,1
                |1,0,1
                |1,1,1
                |1,0,1
                |1,1,1
                |1,1,1
                |1,1,1
                |1,0,1
                |1,0,1
                |1,0,1
                |1,1,1
                |1,0,1
                |1,0,1
                |1,0,1
                |1,1,1
                |1,0,1
                |1,1,1
                |1,1,1
                |1,1,1
                |1,0,1
                |1,0,1
                |1,0,1
                |1,1,1
                |1,0,1
                |1,1,1
                |1,1,1
                |1,1,1
                |1,0,1
                |1,0,1
                |1,1,1
                |1,0,1
                |1,1,1
                |1,1,1
                |1,1,1
                |1,0,1
                |1,0,1
                |1,0,1
                |1,1,1
                |1,0,1
                |1,1,1
                |1,1,1
                |1,1,1
                |1,1,1
                |1,0,1
                |1,1,1
                |1,1,1
                |1,1,1
                |1,1,1
                |1,0,1
                |1,1,1
                |1,1,1
                |1,1,1
                |1,0,1
                |1,0,1
                |1,0,1
                |1,0,1
                |1,0,1
                |1,0,0
                |1,1,1
                |1,0,1
                |1,0,1
                |1,0,1
                |1,1,1
                |1,0,1
                |1,1,1
                |1,1,1
                |1,1,1
                |1,1,1
                |1,0,1
                |1,0,1
                |1,0,1
                |1,1,1
                |1,0,1
                |1,1,1
                |1,1,1
                |1,1,1
                |1,0,1
                |1,0,1
                |1,0,1
                |1,1,1
                |1,0,1
                |1,1,1
                |1,1,1
                |1,1,1
                |1,0,1
                |1,0,1
                |1,0,1
                |1,1,1
                |1,0,1
                |1,1,1
                |1,1,1
                |1,0,1
                |1,0,1
                |1,0,1
                |1,1,1
                |1,0,1
                |1,1,1
                |1,1,1
                |1,1,1
                |1,0,1
                |1,0,1
                |1,0,1
                |1,1,1
                |1,0,1
                |1,1,1
                |1,1,1
                |1,1,1
                |1,0,1
                |1,0,1
                |1,0,1
                |1,1,1
                |1,0,1
                |1,0,1
                |1,0,1
                |1,1,1
                |1,0,1
                |1,1,1
                |1,1,1
                |1,1,1
                |1,0,1
                |1,0,1
                |1,0,1
                |1,1,1
                |1,0,1
                |1,1,1
                |1,1,1
                |1,1,1
                |1,0,1
                |1,0,1
                |1,1,1
                |1,0,1
                |1,1,1
                |1,1,1
                |1,1,1
                |1,0,1
                |1,0,1
                |1,0,1
                |1,1,1
                |1,0,1
                |1,1,1
                |1,1,1
                |1,1,1
                |1,1,1
                |1,0,1
                |1,1,1
                |1,1,1
                |1,1,1
                |1,1,1
                |1,0,1
                |1,1,1
                |1,1,1
                |1,1,1
                |1,0,1
                |1,0,1
                |1,0,1
                |1,0,1
                |1,0,1
                |1,0,0
                |1,1,1
                |1,0,1
                |1,0,1
                |1,0,1
                |1,1,1
                |1,0,1
                |1,1,1
                |1,1,1
                |1,1,1
                |1,1,1
                |1,0,1
                |1,0,1
                |1,0,1
                |1,1,1
                |1,0,1
                |1,1,1
                |1,1,1
                |1,1,1
                |1,0,1
                |1,0,1
                |1,0,1
                |1,1,1
                |1,0,1
                |1,1,1
                |1,1,1
                |1,1,1
                |1,0,1
                |1,0,1
                |1,0,1
                |1,1,1
                |1,0,1
                |1,1,1
                |1,1,1
                |1,0,1
                |1,0,1
                |1,0,1
                |1,1,1
                |1,0,1
                |1,1,1
                |1,1,1
                |1,1,1
                |1,0,1
                |1,0,1
                |1,0,1
                |1,1,1
                |1,0,1
                |1,1,1
                |1,1,1
                |1,1,1
                |1,0,1
                |1,0,1
                |1,0,1
                |1,1,1
                |1,0,1
                |1,0,1
                |1,0,1
                |1,1,1
                |1,0,1
                |1,1,1
                |1,1,1
                |1,1,1
                |1,0,1
                |1,0,1
                |1,0,1
                |1,1,1
                |1,0,1
                |1,1,1
                |1,1,1
                |1,1,1
                |1,0,1
                |1,0,1
                |1,1,1
                |1,0,1
                |1,1,1
                |1,1,1
                |1,1,1
                |1,0,1
                |1,0,1
                |1,0,1
                |1,1,1
                |1,0,1
                |1,1,1
                |1,1,1
                |1,1,1
                |1,1,1
                |1,0,1
                |1,1,1
                |1,1,1
                |1,1,1
                |1,1,1
                |1,0,1
                |1,1,1
                |1,1,1
                |1,1,1
                |1,0,1
                |1,0,1
                |1,0,1
                |1,0,1
                |1,0,1
                |1,0,0
                |1,1,1
                |1,0,1
                |1,0,1
                |1,0,1
                |1,1,1
                |1,0,1
                |1,1,1
                |1,1,1
                |1,1,1
                |1,1,1
                |1,0,1
                |1,0,1
                |1,0,1
                |1,1,1
                |1,0,1
                |1,1,1
                |1,1,1
                |1,1,1
                |1,0,1
                |1,0,1
                |1,0,1
                |1,1,1
                |1,0,1
                |1,1,1
                |1,1,1
                |1,1,1
                |1,0,1
                |1,0,1
                |1,0,1
                |1,1,1
                |1,0,1
                |1,1,1
                |1,1,1
                |1,0,1
                |1,0,1
                |1,0,1
                |1,1,1
                |1,0,1
                |1,1,1
                |1,1,1
                |1,1,1
                |1,0,1
                |1,0,1
                |1,0,1
                |1,1,1
                |1,0,1
                |1,1,1
                |1,1,1
                |1,1,1
                |1,0,1
                |1,0,1
                |1,0,1
                |1,1,1
                |1,0,1
                |1,0,1
                |1,0,1
                |1,1,1
                |1,0,1
                |1,1,1
                |1,1,1
                |1,1,1
                |1,0,1
                |1,0,1
                |1,0,1
                |1,1,1
                |1,0,1
                |1,1,1
                |1,1,1
                |1,1,1
                |1,0,1
                |1,0,1
                |1,1,1
                |1,0,1
                |1,1,1
                |1,1,1
                |1,1,1
                |1,0,1
                |1,0,1
                |1,0,1
                |1,1,1
                |1,0,1
                |1,1,1
                |1,1,1
                |1,1,1
                |1,1,1
                |1,0,1
                |1,1,1
                |1,1,1
                |1,1,1
                |1,1,1
                |1,0,1
                |1,1,1
                |1,1,1
                |1,1,1
                |1,0,1
                |1,0,1
                |1,0,1
                |1,0,1
                |1,0,1
                |1,0,0
                |1,1,1
                |1,0,1
                |1,0,1
                |1,0,1
                |1,1,1
                |1,0,1
                |1,1,1
                |1,1,1
                |1,1,1
                |1,1,1
                |1,0,1
                |1,0,1
                |1,0,1
                |1,1,1
                |1,0,1
                |1,1,1
                |1,1,1
                |1,1,1
                |1,0,1
                |1,0,1
                |1,0,1
                |1,1,1
                |1,0,1
                |1,1,1
                |1,1,1
                |1,1,1
                |1,0,1
                |1,0,1
                |1,0,1
                |1,1,1
                |1,0,1
                |1,1,1
                |1,1,1
                |1,0,1
                |1,0,1
                |1,0,1
                |1,1,1
                |1,0,1
                |1,1,1
                |1,1,1
                |1,1,1
                |1,0,1
                |1,0,1
                |1,0,1
                |1,1,1
                |1,0,1
                |1,1,1
                |1,1,1
                |1,1,1
                |1,0,1
                |1,0,1
                |1,0,1
                |1,1,1
                |1,0,1
                |1,0,1
                |1,0,1
                |1,1,1
                |1,0,1
                |1,1,1
                |1,1,1
                |1,1,1
                |1,0,1
                |1,0,1
                |1,0,1
                |1,1,1
                |1,0,1
                |1,1,1
                |1,1,1
                |1,1,1
                |1,0,1
                |1,0,1
                |1,1,1
                |1,0,1
                |1,1,1
                |1,1,1
                |1,1,1
                |1,0,1
                |1,0,1
                |1,0,1
                |1,1,1
                |1,0,1
                |1,1,1
                |1,1,1
                |1,1,1
                |1,1,1
                |1,0,1
                |1,1,1
                |1,1,1
                |1,1,1
                |1,1,1
                |1,0,1
                |1,1,1
                |1,1,1
                |1,1,1
                |1,0,1
                |1,0,1
                |1,0,1
                |1,0,1
                |1,0,1
                |1,0,0
                |1,1,1
                |1,0,1
                |1,0,1
                |1,0,1
                |1,1,1
                |1,0,1
                |1,1,1
                |1,1,1
                |1,1,1
                |1,1,1
                |1,0,1
                |1,0,1
                |1,0,1
                |1,1,1
                |1,0,1
                |1,1,1
                |1,1,1
                |1,1,1
                |1,0,1
                |1,0,1
                |1,0,1
                |1,1,1
                |1,0,1
                |1,1,1
                |1,1,1
                |1,1,1
                |1,0,1
                |1,0,1
                |1,0,1
                |1,1,1
                |1,0,1
                |1,1,1
                |1,1,1
                |1,0,1
                |1,0,1
                |1,0,1
                |1,1,1
                |1,0,1
                |1,1,1
                |1,1,1
                |1,1,1
                |1,0,1
                |1,0,1
                |1,0,1
                |1,1,1
                |1,0,1
                |1,1,1
                |1,1,1
                |1,1,1
                |1,0,1
                |1,0,1
                |1,0,1
                |1,1,1
                |1,0,1
                |1,0,1
                |1,0,1
                |1,1,1
                |1,0,1
                |1,1,1
                |1,1,1
                |1,1,1
                |1,0,1
                |1,0,1
                |1,0,1
                |1,1,1
                |1,0,1
                |1,1,1
                |1,1,1
                |1,1,1
                |1,0,1
                |1,0,1
                |1,1,1
                |1,0,1
                |1,1,1
                |1,1,1
                |1,1,1
                |1,0,1
                |1,0,1
                |1,0,1
                |1,1,1
                |1,0,1
                |1,1,1
                |1,1,1
                |1,1,1
                |1,1,1
                |1,0,1
                |1,1,1
                |1,1,1
                |1,1,1
                |1,1,1
                |1,0,1
                |1,1,1
                |1,1,1
                |1,1,1
                |1,0,1
                |1,0,1
                |1,0,1
                |1,0,1
                |1,0,1
                |1,0,0
                |1,1,1
                |1,0,1
                |1,0,1
                |1,0,1
                |1,1,1
                |1,0,1
                |1,1,1
                |1,1,1
                |1,1,1
                |1,1,1
                |1,0,1
                |1,0,1
                |1,0,1
                |1,1,1
                |1,0,1
                |1,1,1
                |1,1,1
                |1,1,1
                |1,0,1
                |1,0,1
                |1,0,1
                |1,1,1
                |1,0,1
                |1,1,1
                |1,1,1
                |1,1,1
                |1,0,1
                |1,0,1
                |1,0,1
                |1,1,1
                |1,0,1
                |1,1,1
                |1,1,1
                |1,0,1
                |1,0,1
                |1,0,1
                |1,1,1
                |1,0,1
                |1,1,1
                |1,1,1
                |1,1,1
                |1,0,1
                |1,0,1
                |1,0,1
                |1,1,1
                |1,0,1
                |1,1,1
                |1,1,1
                |1,1,1
                |1,0,1
                |1,0,1
                |1,0,1
                |1,1,1
                |1,0,1
                |1,0,1
                |1,0,1
                |1,1,1
                |1,0,1
                |1,1,1
                |1,1,1
                |1,1,1
                |1,0,1
                |1,0,1
                |1,0,1
                |1,1,1
                |1,0,1
                |1,1,1
                |1,1,1
                |1,1,1
                |1,0,1
                |1,0,1
                |1,1,1
                |1,0,1
                |1,1,1
                |1,1,1
                |1,1,1
                |1,0,1
                |1,0,1
                |1,0,1
                |1,1,1
                |1,0,1
                |1,1,1
                |1,1,1
                |1,1,1
                |1,1,1
                |1,0,1
                |1,1,1
                |1,1,1
                |1,1,1
                |1,1,1
                |1,0,1
                |1,1,1
                |1,1,1
                |1,1,1
                |1,0,1
                |1,0,1
                |1,0,1
                |1,0,1
                |1,0,1
                |1,0,0
                |1,1,1
                |1,0,1
                |1,0,1
                |1,0,1
                |1,1,1
                |1,0,1
                |1,1,1
                |1,1,1
                |1,1,1
                |1,1,1
                |1,0,1
                |1,0,1
                |1,0,1
                |1,1,1
                |1,0,1
                |1,1,1
                |1,1,1
                |1,1,1
                |1,0,1
                |1,0,1
                |1,0,1
                |1,1,1
                |1,0,1
                |1,1,1
                |1,1,1
                |1,1,1
                |1,0,1
                |1,0,1
                |1,0,1
                |1,1,1
                |1,0,1
                |1,1,1
                |1,1,1
                |1,0,1
                |1,0,1
                |1,0,1
                |1,1,1
                |1,0,1
                |1,1,1
                |1,1,1
                |1,1,1
                |1,0,1
                |1,0,1
                |1,0,1
                |1,1,1
                |1,0,1
                |1,1,1
                |1,1,1
                |1,1,1
                |1,0,1
                |1,0,1
                |1,0,1
                |1,1,1
                |1,0,1
                |1,0,1
                |1,0,1
                |1,1,1
                |1,0,1
                |1,1,1
                |1,1,1
                |1,1,1
                |1,0,1
                |1,0,1
                |1,0,1
                |1,1,1
                |1,0,1
                |1,1,1
                |1,1,1
                |1,1,1
                |1,0,1
                |1,0,1
                |1,1,1
                |1,0,1
                |1,1,1
                |1,1,1
                |1,1,1
                |1,0,1
                |1,0,1
                |1,0,1
                |1,1,1
                |1,0,1
                |1,1,1
                |1,1,1
                |1,1,1
                |1,1,1
                |1,0,1
                |1,1,1
                |1,1,1
                |1,1,1
                |1,1,1
                |1,0,1
                |1,1,1
                |1,1,1
                |1,1,1
                |1,0,1
                |1,0,1
                |1,0,1
                |1,0,1 
                |1,1,0|];